# Solution for model GasLib-40
# Objective value = 9.9310527812547527e+00
loadshed[innode_1] 0
loadshed[innode_2] 0
loadshed[innode_3] 0
loadshed[innode_4] 0
loadshed[innode_5] 0
loadshed[innode_6] 0
loadshed[innode_7] 0
loadshed[innode_8] 0
loadshed[source_1] -1.6184570483785321e-01
loadshed[source_2] 3.6833542528211805e-03
loadshed[source_3] 2.2098122168101031e-01
loadshed[sink_1] 0
loadshed[sink_2] 0
loadshed[sink_3] 0
loadshed[sink_4] 0
loadshed[sink_5] 0
loadshed[sink_6] 0
loadshed[sink_7] 0
loadshed[sink_8] 0
loadshed[sink_9] 0
loadshed[sink_10] 0
loadshed[sink_11] 0
loadshed[sink_12] 6.0724908726143711e-01
loadshed[sink_13] 0
loadshed[sink_14] 0
loadshed[sink_15] 0
loadshed[sink_16] 0
loadshed[sink_17] 0
loadshed[sink_18] 0
loadshed[sink_19] 0
loadshed[sink_20] 0
loadshed[sink_21] 0
loadshed[sink_22] 0
loadshed[sink_23] 0
loadshed[sink_24] 0
loadshed[sink_25] 0
loadshed[sink_26] 0
loadshed[sink_27] 0
loadshed[sink_28] 0
loadshed[sink_29] 0
flow[source_1,sink_3] 1.8367651021273423e+02
flow[innode_1,sink_16] 1.6354166666666970e+01
flow[innode_6,sink_13] -8.6761283918868415e+00
flow[sink_13,sink_14] -2.5030295058553509e+01
flow[sink_14,sink_10] -4.1384461725220177e+01
flow[sink_25,sink_26] 1.7205317092174147e+02
flow[sink_26,sink_9] 1.2230961894144082e+02
flow[sink_9,sink_18] 1.0595545227477415e+02
flow[sink_26,sink_4] 3.3389385313633994e+01
flow[sink_4,sink_20] -1.7250122796892853e+01
flow[sink_18,sink_6] 8.9601285608107474e+01
flow[sink_25,innode_8] -1.5096817687939787e+02
flow[sink_6,sink_7] 4.0538785608106537e+01
flow[sink_6,sink_22] 3.2708333333333641e+01
flow[sink_7,sink_24] 3.9131447218745251e+01
flow[sink_22,sink_1] 1.6354166666666970e+01
flow[sink_24,sink_21] 2.2777280552078583e+01
flow[sink_21,sink_12] 6.4231138854119152e+00
flow[sink_7,sink_5] -1.4946828277304945e+01
flow[sink_5,sink_17] -3.1300994943971659e+01
flow[sink_17,sink_4] -3.4285341443860176e+01
flow[sink_17,sink_8] -1.3369820166778055e+01
flow[sink_3,sink_23] 16.3541666666697
flow[sink_8,sink_20] -2.9723986833444723e+01
flow[sink_25,sink_20] 6.3328276297004209e+01
flow[sink_25,sink_15] -92.0913086141274
flow[sink_15,sink_29] -6.0721990652702722e+01
flow[sink_29,sink_28] 1.6354166666667879e+01
flow[sink_29,sink_2] 6.4077651294758027e+01
flow[sink_2,sink_15] 4.7723484628091356e+01
flow[sink_29,innode_7] -1.5750797528079531e+02
flow[innode_4,sink_19] 4.7904542528613220e+01
flow[sink_19,innode_3] 4.4137735545489704e+01
flow[innode_4,innode_5] 7.5250752529940939e+01
flow[sink_27,innode_5] -7.5250752529940939e+01
flow[sink_27,sink_19] 5.8896585863274268e+01
flow[sink_10,sink_11] 3.2708333333333641e+01
flow[sink_10,innode_2] -4.6309226179730778e+01
flow[sink_10,innode_3] -4.4137735545489704e+01
flow[innode_6,sink_25] 8.6761283918868415e+00
flow[sink_11,innode_1] 1.6354166666666970e+01
flow[sink_19,innode_2] 4.6309226179730778e+01
flow[source_3,innode_4] 1.2315529505855416e+02
flow[source_2,innode_7] 1.5750797528079531e+02
flow[sink_3,innode_8] 1.5096817687939787e+02
pressure[innode_1] 7.6473179746125282e+01
pressure[innode_2] 7.9072514920695824e+01
pressure[innode_3] 7.8974776903386683e+01
pressure[innode_4] 81.01325
pressure[innode_5] 8.0961488564425437e+01
pressure[innode_6] 7.4574830232926573e+01
pressure[innode_7] 81.01325
pressure[innode_8] 80.399289593329
pressure[source_1] 81.01325
pressure[source_2] 81.01325
pressure[source_3] 81.01325
pressure[sink_1] 46.8091973009791
pressure[sink_2] 75.1773694747111
pressure[sink_3] 80.399289593329
pressure[sink_4] 5.8212013581769916e+01
pressure[sink_5] 5.4570043010968348e+01
pressure[sink_6] 4.8910274911366471e+01
pressure[sink_7] 48.353774014807
pressure[sink_8] 5.7406218933035589e+01
pressure[sink_9] 5.5136680080050184e+01
pressure[sink_10] 7.6624881053728828e+01
pressure[sink_11] 7.6473179746125282e+01
pressure[sink_12] 1.0132499999999998e+00
pressure[sink_13] 74.6226602788353
pressure[sink_14] 7.4667454123952282e+01
pressure[sink_15] 7.5021562815486973e+01
pressure[sink_16] 75.4515299113076
pressure[sink_17] 5.6901740884204379e+01
pressure[sink_18] 5.1302896015189290e+01
pressure[sink_19] 7.9072514920695824e+01
pressure[sink_20] 5.9477562798843408e+01
pressure[sink_21] 3.2989454588218261e+00
pressure[sink_22] 4.7872966443334107e+01
pressure[sink_23] 8.0234571581669215e+01
pressure[sink_24] 3.5511826783185603e+00
pressure[sink_25] 7.4574830232926573e+01
pressure[sink_26] 6.2457226446132275e+01
pressure[sink_27] 8.0337046366866559e+01
pressure[sink_28] 76.5052464244058
pressure[sink_29] 7.6800528698022987e+01
interdiction[source_1,sink_3] 0
interdiction[innode_1,sink_16] 0
interdiction[innode_6,sink_13] 0
interdiction[sink_13,sink_14] 0
interdiction[sink_14,sink_10] 0
interdiction[sink_25,sink_26] 0
interdiction[sink_26,sink_9] 0
interdiction[sink_9,sink_18] 0
interdiction[sink_26,sink_4] 0
interdiction[sink_4,sink_20] 0
interdiction[sink_18,sink_6] 0
interdiction[sink_25,innode_8] 0
interdiction[sink_6,sink_7] 0
interdiction[sink_6,sink_22] 0
interdiction[sink_7,sink_24] 0
interdiction[sink_22,sink_1] 0
interdiction[sink_24,sink_21] 0
interdiction[sink_21,sink_12] 0
interdiction[sink_7,sink_5] 0
interdiction[sink_5,sink_17] 0
interdiction[sink_17,sink_4] 0
interdiction[sink_17,sink_8] 0
interdiction[sink_3,sink_23] 0
interdiction[sink_8,sink_20] 0
interdiction[sink_25,sink_20] 0
interdiction[sink_25,sink_15] 0
interdiction[sink_15,sink_29] 0
interdiction[sink_29,sink_28] 0
interdiction[sink_29,sink_2] 0
interdiction[sink_2,sink_15] 0
interdiction[sink_29,innode_7] 0
interdiction[innode_4,sink_19] 0
interdiction[sink_19,innode_3] 0
interdiction[innode_4,innode_5] 0
interdiction[sink_27,innode_5] 0
interdiction[sink_27,sink_19] 0
interdiction[sink_10,sink_11] 0
interdiction[sink_10,innode_2] 0
interdiction[sink_10,innode_3] 0
interdiction[innode_6,sink_25] 0
interdiction[sink_11,innode_1] 0
interdiction[sink_19,innode_2] 0
interdiction[source_3,innode_4] 0
interdiction[source_2,innode_7] 0
interdiction[sink_3,innode_8] 0
WCcheckFlow[source_1,sink_3] 39
WCcheckFlow[innode_1,sink_16] 1
WCcheckFlow[innode_6,sink_13] 13
WCcheckFlow[sink_13,sink_14] 12
WCcheckFlow[sink_14,sink_10] 11
WCcheckFlow[sink_25,sink_26] 15
WCcheckFlow[sink_26,sink_9] 12
WCcheckFlow[sink_9,sink_18] 11
WCcheckFlow[sink_26,sink_4] 2
WCcheckFlow[sink_4,sink_20] 1
WCcheckFlow[sink_18,sink_6] 10
WCcheckFlow[sink_25,innode_8] -36
WCcheckFlow[sink_6,sink_7] 7
WCcheckFlow[sink_6,sink_22] 2
WCcheckFlow[sink_7,sink_24] 3
WCcheckFlow[sink_22,sink_1] 1
WCcheckFlow[sink_24,sink_21] 2
WCcheckFlow[sink_21,sink_12] 1
WCcheckFlow[sink_7,sink_5] 3
WCcheckFlow[sink_5,sink_17] 2
WCcheckFlow[sink_17,sink_4] 0
WCcheckFlow[sink_17,sink_8] 1
WCcheckFlow[sink_3,sink_23] 1
WCcheckFlow[sink_8,sink_20] 0
WCcheckFlow[sink_25,sink_20] 0
WCcheckFlow[sink_25,sink_15] 6
WCcheckFlow[sink_15,sink_29] 5
WCcheckFlow[sink_29,sink_28] 1
WCcheckFlow[sink_29,sink_2] 1
WCcheckFlow[sink_2,sink_15] 0
WCcheckFlow[sink_29,innode_7] 2
WCcheckFlow[innode_4,sink_19] -4
WCcheckFlow[sink_19,innode_3] -5
WCcheckFlow[innode_4,innode_5] 2
WCcheckFlow[sink_27,innode_5] -1
WCcheckFlow[sink_27,sink_19] 0
WCcheckFlow[sink_10,sink_11] 3
WCcheckFlow[sink_10,innode_2] 1
WCcheckFlow[sink_10,innode_3] 6
WCcheckFlow[innode_6,sink_25] -14
WCcheckFlow[sink_11,innode_1] 2
WCcheckFlow[sink_19,innode_2] 0
WCcheckFlow[source_3,innode_4] -1
WCcheckFlow[source_2,innode_7] -1
WCcheckFlow[sink_3,innode_8] 37
